GLPK/Casa/transp.dat
data;

set I := Seattle San-Diego;

set J := New-York Chicago Topeka;

param a := Seattle 350
	San-Diego 600;

param b := New-York 325
	Chicago 300
	Topeka 275;

param d : New-York Chicago Topeka :=
	Seattle 2.5 1.7 1.8
	San-Diego 2.5 1.8 1.4 ;

param f := 90;

end;